NAME          BLANK   
ROWS
 N  OBJROW
 L  R0000000
COLUMNS
    C0000000  OBJROW     -628.         R0000000  254.        
    C0000001  OBJROW     -293.         R0000000  68.         
    C0000002  OBJROW     -318.         R0000000  766.        
    C0000003  OBJROW     -293.         R0000000  260.        
    C0000004  OBJROW     -164.         R0000000  911.        
    C0000005  OBJROW     -918.         R0000000  410.        
    C0000006  OBJROW     -948.         R0000000  432.        
    C0000007  OBJROW     -679.         R0000000  762.        
    C0000008  OBJROW     -468.         R0000000  416.        
    C0000009  OBJROW     -287.         R0000000  155.        
    C0000010  OBJROW     -708.         R0000000  264.        
    C0000011  OBJROW     -437.         R0000000  25.         
    C0000012  OBJROW     -662.         R0000000  841.        
    C0000013  OBJROW     -627.         R0000000  650.        
    C0000014  OBJROW     -432.         R0000000  519.        
    C0000015  OBJROW     -737.         R0000000  532.        
    C0000016  OBJROW     -265.         R0000000  599.        
    C0000017  OBJROW     -225.         R0000000  538.        
    C0000018  OBJROW     -297.         R0000000  160.        
    C0000019  OBJROW     -905.         R0000000  106.        
    C0000020  OBJROW     -26.          R0000000  96.         
    C0000021  OBJROW     -937.         R0000000  955.        
    C0000022  OBJROW     -570.         R0000000  150.        
    C0000023  OBJROW     -703.         R0000000  29.         
    C0000024  OBJROW     -955.         R0000000  878.        
    C0000025  OBJROW     -248.         R0000000  989.        
    C0000026  OBJROW     -363.         R0000000  654.        
    C0000027  OBJROW     -918.         R0000000  381.        
    C0000028  OBJROW     -980.         R0000000  590.        
    C0000029  OBJROW     -230.         R0000000  171.        
    C0000030  OBJROW     -973.         R0000000  247.        
    C0000031  OBJROW     -900.         R0000000  668.        
    C0000032  OBJROW     -350.         R0000000  301.        
    C0000033  OBJROW     -52.          R0000000  646.        
    C0000034  OBJROW     -279.         R0000000  891.        
    C0000035  OBJROW     -250.         R0000000  56.         
    C0000036  OBJROW     -344.         R0000000  675.        
    C0000037  OBJROW     -395.         R0000000  758.        
    C0000038  OBJROW     -560.         R0000000  812.        
    C0000039  OBJROW     -323.         R0000000  927.        
    C0000040  OBJROW     -782.         R0000000  154.        
    C0000041  OBJROW     -964.         R0000000  464.        
    C0000042  OBJROW     -494.         R0000000  675.        
    C0000043  OBJROW     -244.         R0000000  920.        
    C0000044  OBJROW     -678.         R0000000  747.        
    C0000045  OBJROW     -837.         R0000000  504.        
    C0000046  OBJROW     -14.          R0000000  377.        
    C0000047  OBJROW     -755.         R0000000  937.        
    C0000048  OBJROW     -216.         R0000000  530.        
    C0000049  OBJROW     -769.         R0000000  593.        
RHS
    RHS       R0000000  12721.      
BOUNDS
 BV BOUND     C0000000  1.          
 BV BOUND     C0000001  1.          
 BV BOUND     C0000002  1.          
 BV BOUND     C0000003  1.          
 BV BOUND     C0000004  1.          
 BV BOUND     C0000005  1.          
 BV BOUND     C0000006  1.          
 BV BOUND     C0000007  1.          
 BV BOUND     C0000008  1.          
 BV BOUND     C0000009  1.          
 BV BOUND     C0000010  1.          
 BV BOUND     C0000011  1.          
 BV BOUND     C0000012  1.          
 BV BOUND     C0000013  1.          
 BV BOUND     C0000014  1.          
 BV BOUND     C0000015  1.          
 BV BOUND     C0000016  1.          
 BV BOUND     C0000017  1.          
 BV BOUND     C0000018  1.          
 BV BOUND     C0000019  1.          
 BV BOUND     C0000020  1.          
 BV BOUND     C0000021  1.          
 BV BOUND     C0000022  1.          
 BV BOUND     C0000023  1.          
 BV BOUND     C0000024  1.          
 BV BOUND     C0000025  1.          
 BV BOUND     C0000026  1.          
 BV BOUND     C0000027  1.          
 BV BOUND     C0000028  1.          
 BV BOUND     C0000029  1.          
 BV BOUND     C0000030  1.          
 BV BOUND     C0000031  1.          
 BV BOUND     C0000032  1.          
 BV BOUND     C0000033  1.          
 BV BOUND     C0000034  1.          
 BV BOUND     C0000035  1.          
 BV BOUND     C0000036  1.          
 BV BOUND     C0000037  1.          
 BV BOUND     C0000038  1.          
 BV BOUND     C0000039  1.          
 BV BOUND     C0000040  1.          
 BV BOUND     C0000041  1.          
 BV BOUND     C0000042  1.          
 BV BOUND     C0000043  1.          
 BV BOUND     C0000044  1.          
 BV BOUND     C0000045  1.          
 BV BOUND     C0000046  1.          
 BV BOUND     C0000047  1.          
 BV BOUND     C0000048  1.          
 BV BOUND     C0000049  1.          
ENDATA
